0  0  0  1  0  1  1  1  1  1  1  0  0  0  1  1  1  0  1  0  1  1  1  0  0  0  0  1  0  1  1  1  1  0  0  0  0  1  1  0  0  0  0  0  1  1  0  1  1  1  0  0  1  1  1  1  1  1  0  1  0  1  0  0  0  0  1  1  0  0  0  0  1  1  0  1  0  0  0  1  0  0  1  0  1  1  1  0  0  0  1  1  1  0  1  1  1  1  1  1  1  1  1  0  0  1  0  0  1  0  1  0  1  0  0  0  1  0  1  1  0  1  1  1  1  1  0  0  0  1  0  1  0  0  0  0  0  0  1  0  1  0  0  0  0  1  1  1  0  1  1  0  1  1  1  1  0  1  0  0  0  0  1  1  1  0  1  0  1  0  0  0  1  1  1  0  0  0  0  1  1  1  0  0  1  1  0  1  1  1  1  0  1  0  0  0  0  0  0  1  
1  1  1  1  1  1  1  1  1  1  1  0  1  0  1  0  1  0  1  1  0  0  0  0  0  0  1  1  1  0  1  1  0  0  0  0  0  1  1  1  1  1  0  0  1  1  0  0  1  0  1  0  1  0  1  0  1  1  0  1  1  0  1  1  0  0  0  0  0  0  1  1  0  0  0  0  0  0  1  0  1  0  1  0  1  0  1  0  1  0  1  0  1  1  0  0  0  0  1  0  0  0  1  1  1  1  0  0  0  1  1  0  0  0  0  0  1  1  1  1  0  0  0  0  1  1  1  1  1  1  0  0  0  1  0  0  0  1  0  0  0  1  1  0  0  1  1  0  0  0  1  1  0  0  1  1  1  1  0  1  0  0  1  1  0  0  1  1  0  0  0  0  1  1  0  1  1  1  1  1  0  0  1  1  0  1  0  1  0  0  1  0  1  1  1  0  1  0  1  0  
0  1  1  0  1  0  0  1  0  0  1  1  1  0  0  1  0  0  0  0  0  1  1  0  1  0  1  0  1  0  1  1  0  1  0  0  1  1  0  0  0  0  0  1  1  0  0  0  0  0  0  0  1  0  1  1  1  1  1  1  1  0  1  1  0  0  0  0  1  0  0  1  0  1  1  1  1  0  0  1  0  1  1  0  1  1  0  1  1  0  1  1  0  0  1  1  0  0  1  1  0  0  0  0  0  1  0  1  1  1  0  0  1  0  0  1  1  1  1  0  1  0  0  1  0  1  1  1  1  1  0  0  0  0  0  0  0  1  0  1  0  0  0  1  1  0  1  0  0  1  0  0  0  0  0  0  0  1  1  1  1  0  1  1  0  0  0  0  0  0  0  0  0  0  1  1  1  0  0  0  1  1  1  0  0  0  1  1  0  0  1  1  1  0  0  0  1  1  0  0  
1  1  0  0  1  1  0  1  1  0  0  0  0  1  1  1  1  0  0  1  0  1  1  0  0  0  1  0  1  0  0  1  0  0  0  1  1  0  0  0  1  1  0  1  0  1  0  0  0  0  1  0  0  0  1  0  1  1  0  1  1  1  0  1  1  1  1  1  1  1  1  1  1  0  1  1  1  1  0  1  0  1  1  1  1  0  0  0  0  0  1  0  1  0  1  0  1  1  0  1  0  1  1  0  0  1  0  0  0  1  1  0  0  1  1  1  0  1  0  0  0  0  1  1  0  0  1  0  0  0  0  1  1  0  1  1  0  0  0  0  0  1  0  0  0  1  0  1  0  1  0  1  1  1  1  0  1  1  1  0  1  0  0  1  0  0  1  0  1  1  1  0  0  1  1  1  1  0  1  0  0  0  1  1  0  1  1  0  1  1  0  1  1  1  1  1  0  1  1  1  
0  0  0  0  0  1  0  1  1  1  0  1  1  0  0  0  1  1  0  0  1  0  1  0  0  1  1  1  0  0  0  1  0  0  0  0  0  1  0  1  0  1  0  0  0  1  1  1  0  0  1  0  1  1  1  1  0  0  0  0  0  0  1  0  1  0  1  1  0  0  0  1  1  0  0  1  1  1  0  1  0  1  1  1  1  0  1  1  1  1  1  0  1  1  1  0  0  0  1  0  0  1  1  1  1  0  0  0  1  0  1  1  1  1  1  1  0  0  1  0  1  1  1  0  0  0  1  0  1  0  0  0  1  0  1  1  1  0  1  0  0  0  0  1  1  1  0  1  1  1  1  0  1  1  0  1  1  0  0  0  1  1  0  1  0  1  1  0  1  0  0  0  1  0  0  0  0  0  0  1  1  0  0  0  1  0  0  0  0  1  1  0  1  1  0  1  0  1  0  1  
1  1  1  0  0  0  0  1  1  0  0  1  0  0  0  0  1  0  1  1  1  0  0  0  1  1  0  1  1  1  0  1  0  1  1  1  1  0  0  0  0  0  1  0  0  0  0  1  1  0  0  0  0  1  1  1  0  0  1  1  0  1  1  1  1  0  1  0  0  0  0  1  0  0  1  1  1  0  0  1  1  1  1  0  1  0  0  0  0  0  0  1  1  1  0  1  0  1  0  1  0  0  1  1  0  0  0  0  1  1  0  0  1  0  0  1  1  1  1  1  0  1  1  1  1  0  1  1  0  0  0  0  0  1  1  1  0  1  1  1  1  0  0  0  0  1  1  0  1  1  0  1  1  1  0  0  1  1  0  1  0  1  1  0  0  1  1  0  0  1  1  1  0  1  0  1  0  0  0  1  1  1  0  1  0  0  0  0  0  0  0  1  0  1  1  1  0  0  0  1  
0  0  1  0  0  0  0  0  0  1  0  0  0  1  1  0  1  1  0  0  0  0  0  0  0  1  0  0  1  1  1  1  1  1  1  0  1  1  0  0  0  1  1  0  1  1  1  1  1  0  1  1  0  0  0  0  0  0  0  1  0  0  1  1  1  1  1  0  0  1  1  0  1  0  0  0  1  0  1  0  0  0  1  0  1  1  1  1  1  0  1  0  1  0  1  1  0  1  0  1  0  1  0  0  0  0  0  0  1  1  0  0  0  0  1  0  1  0  1  1  1  0  1  1  0  0  0  0  0  0  0  0  1  0  1  1  0  1  0  1  0  1  1  0  0  1  1  0  0  0  0  0  1  1  1  0  1  1  0  0  1  0  1  0  0  1  1  1  0  1  0  0  1  1  0  1  0  0  1  1  1  1  1  0  0  1  0  0  0  0  0  1  0  0  0  1  1  1  1  0  
0  0  1  0  0  0  1  0  0  0  0  0  0  1  0  1  1  1  0  1  0  0  0  1  0  1  0  1  1  0  0  1  1  1  1  0  1  1  1  1  0  0  1  0  1  0  0  0  0  0  1  0  0  1  0  1  1  1  1  1  0  1  1  0  1  0  0  0  1  0  0  1  1  1  1  1  0  0  0  1  1  1  1  0  0  0  1  1  0  1  0  0  1  0  1  1  0  0  0  1  1  1  1  1  1  1  0  1  1  1  1  1  0  0  1  0  0  0  1  0  0  1  0  1  1  1  1  0  1  1  1  1  0  1  1  1  1  0  1  0  0  0  0  1  1  1  1  1  1  0  0  1  1  1  1  1  0  1  1  1  1  0  1  1  1  0  1  1  0  0  0  1  1  0  0  0  0  0  1  1  0  1  0  1  1  1  0  1  0  1  0  0  0  0  0  0  1  1  0  1  
0  1  1  0  1  1  0  1  0  0  0  0  0  0  0  0  1  1  0  0  0  1  0  0  0  0  1  0  0  0  0  0  1  1  1  1  1  1  1  1  1  1  1  1  0  1  0  1  1  0  1  0  0  1  1  0  0  0  1  0  1  1  1  1  1  0  0  1  1  1  1  1  1  1  0  0  0  1  1  1  0  0  1  0  0  1  0  0  1  1  0  1  1  1  1  1  0  0  0  0  1  0  0  0  1  0  1  1  1  0  1  0  0  1  1  0  1  0  0  0  0  0  1  0  0  1  0  0  0  1  0  1  1  1  1  1  1  0  0  1  1  0  0  0  1  0  1  1  1  1  1  0  1  1  0  1  0  0  0  0  1  0  0  0  1  1  1  1  0  1  0  0  1  1  1  1  1  0  0  0  1  1  1  1  0  0  0  0  1  1  1  1  0  1  0  0  1  1  0  0  
0  0  1  1  1  0  1  1  1  0  0  0  0  0  0  0  1  1  1  0  0  1  1  1  0  1  0  0  1  1  1  0  1  1  0  1  1  0  1  0  1  1  0  0  0  1  0  1  1  0  0  1  1  1  0  0  1  1  0  0  1  1  0  1  1  0  1  1  0  0  0  1  0  1  0  0  0  0  1  1  0  0  0  1  0  0  1  1  1  1  0  0  1  1  1  1  0  0  1  1  1  1  0  0  0  1  1  0  0  0  1  1  1  0  0  1  0  1  0  0  1  1  0  1  1  0  0  1  0  0  0  0  0  1  0  1  1  0  1  0  1  0  0  0  1  1  1  1  0  1  1  1  1  0  1  0  0  1  1  0  1  0  1  1  1  1  0  1  1  1  0  0  0  0  0  0  0  0  1  1  1  0  1  0  0  1  0  1  1  0  1  1  1  0  1  1  1  1  1  1  
0  1  1  1  0  1  0  0  1  1  1  1  0  1  0  1  0  1  0  0  0  1  1  0  0  1  1  0  0  1  1  0  1  0  1  1  1  0  1  0  0  0  0  0  1  1  0  0  0  0  1  1  0  1  1  0  0  0  0  1  0  1  0  0  0  0  0  0  1  1  0  0  0  1  1  1  1  1  1  1  0  1  0  0  0  0  1  0  0  0  1  0  0  1  1  0  0  1  0  1  1  1  0  1  0  0  0  0  1  0  0  0  0  0  1  0  1  1  0  0  1  0  0  0  0  0  1  1  1  0  0  0  0  0  1  1  0  0  1  1  0  1  1  0  1  1  0  1  1  1  1  1  1  1  0  1  1  1  0  0  0  1  1  0  1  1  0  1  1  1  0  0  1  1  1  1  0  1  0  1  0  0  1  1  0  1  0  0  0  0  1  0  1  0  1  1  0  0  1  0  
1  1  0  0  1  1  1  0  0  1  1  0  0  1  1  0  0  1  1  1  0  0  0  1  1  0  0  1  1  0  1  1  0  1  1  0  0  1  1  1  1  0  0  1  1  0  1  0  0  0  1  1  0  1  1  1  1  0  1  1  0  0  0  0  1  0  1  0  0  0  1  0  1  0  1  0  0  0  1  1  0  1  1  1  0  1  1  1  0  1  1  1  1  1  0  0  0  0  0  1  0  0  1  1  0  0  1  1  1  0  1  1  1  0  0  1  0  1  0  0  0  1  1  0  0  0  1  0  0  1  0  0  1  0  0  1  1  1  0  1  1  1  1  1  0  0  1  0  1  0  0  1  1  0  0  0  1  0  0  0  1  0  1  1  0  1  1  1  0  0  0  1  1  0  0  0  0  1  0  1  1  0  1  1  0  1  1  1  0  0  1  0  1  1  0  1  1  1  1  1  
0  1  0  0  1  1  0  1  0  0  0  0  1  0  1  1  0  1  1  0  0  1  0  1  1  1  1  1  1  1  1  1  0  1  1  0  0  1  1  1  1  0  1  0  0  0  0  1  1  0  0  1  0  1  0  0  1  1  1  0  0  0  0  0  0  0  0  1  1  1  1  0  0  0  1  0  1  0  1  0  0  0  1  1  0  1  0  0  0  1  0  1  1  1  1  1  1  1  0  1  1  1  1  1  0  0  1  0  1  1  1  0  1  0  1  1  1  1  0  0  0  1  0  0  0  0  1  1  1  1  0  1  1  0  0  1  1  0  0  1  1  0  0  0  0  1  1  1  1  1  1  0  1  1  0  0  1  1  1  0  1  1  0  1  0  1  0  1  0  1  0  1  0  0  0  0  1  1  0  0  0  1  0  1  1  1  1  0  1  1  1  1  1  0  0  0  0  1  0  0  
0  0  1  1  0  0  1  1  0  0  0  1  0  1  0  1  1  0  0  1  0  1  1  0  1  1  0  0  0  0  0  0  0  1  1  1  0  1  1  1  0  0  0  0  1  1  0  1  1  0  1  0  1  0  1  1  1  0  0  0  0  1  0  0  0  1  1  0  0  1  0  1  1  1  0  0  0  1  1  1  0  1  0  0  0  1  1  0  1  1  0  0  1  1  0  0  1  1  0  0  0  1  0  1  1  1  1  1  0  1  0  0  0  0  1  0  1  0  0  0  0  0  1  1  0  0  0  0  1  1  0  0  0  0  0  1  0  0  1  0  1  1  0  1  1  0  0  0  0  0  1  1  1  1  1  0  0  1  0  0  0  1  0  1  1  0  0  1  1  1  0  0  1  1  0  0  0  1  1  1  1  0  0  1  0  1  0  1  1  0  0  0  0  0  1  0  0  1  1  0  
1  1  0  1  1  0  1  1  0  1  0  0  1  0  1  0  1  1  1  0  0  0  0  1  1  0  1  1  0  0  0  0  1  0  1  0  1  1  0  0  0  1  0  1  0  0  1  0  0  1  0  1  0  0  0  1  1  0  0  1  0  1  1  0  0  0  1  1  1  1  0  1  1  0  1  0  0  0  0  1  0  0  1  0  0  1  0  1  0  1  0  0  1  0  0  1  0  0  0  1  1  1  0  0  1  1  1  0  0  1  0  0  1  1  0  0  1  1  1  1  0  0  1  1  1  0  1  0  1  1  1  1  0  0  1  0  0  1  0  1  1  0  0  0  1  1  0  0  1  1  1  0  0  0  0  0  1  0  1  1  1  1  1  1  0  1  0  0  1  0  0  0  1  0  0  1  0  1  1  1  1  1  0  0  0  0  0  1  0  1  1  1  0  1  1  0  1  1  0  1  
0  0  0  1  1  0  0  0  1  0  1  0  0  1  0  1  1  1  1  0  0  0  0  1  1  0  0  1  1  1  1  0  0  1  1  1  1  1  0  1  1  1  1  1  1  1  0  1  1  1  0  1  0  0  0  1  1  1  1  0  0  0  1  1  1  1  1  0  0  1  0  0  1  1  0  0  0  1  1  1  1  0  0  1  1  1  0  0  1  0  1  1  1  1  1  0  0  1  1  0  1  0  1  0  1  0  0  1  1  0  1  1  1  0  0  1  1  0  0  0  1  0  1  1  0  1  1  0  1  0  1  1  1  1  1  1  1  1  0  1  0  0  1  0  0  0  0  1  0  1  0  1  0  0  0  1  0  1  0  0  0  0  1  1  1  0  1  1  1  0  0  0  0  1  0  1  1  0  0  1  0  1  1  0  0  1  1  1  1  0  1  1  0  0  1  0  1  0  0  1  
0  0  0  1  0  0  0  0  0  0  0  0  1  0  1  1  1  0  1  1  0  0  1  0  0  0  1  0  1  0  0  1  1  0  1  1  1  0  0  0  0  1  1  0  1  0  0  1  0  0  0  0  0  0  0  0  1  0  0  1  0  0  1  1  0  1  0  0  1  1  0  0  1  0  1  1  0  1  0  1  1  0  0  1  0  0  1  0  0  1  0  0  1  0  0  0  1  1  1  1  0  0  1  0  1  0  0  0  1  0  0  1  0  0  1  0  0  0  0  1  1  1  1  1  1  0  1  0  1  1  1  0  0  1  0  0  0  1  1  1  1  0  1  0  1  0  0  1  0  0  0  0  1  0  0  1  1  1  0  0  0  1  1  0  0  0  1  1  1  1  1  0  0  1  0  0  1  1  0  0  0  0  1  0  1  0  1  0  1  0  1  0  0  0  1  0  1  0  0  1  
1  0  0  0  1  1  1  0  0  1  0  1  0  0  1  0  0  1  0  0  0  1  1  0  1  0  0  0  1  0  0  0  1  1  0  1  0  0  1  1  0  1  1  1  0  1  0  0  1  1  1  1  1  1  0  1  0  1  0  0  1  0  0  0  0  0  1  1  1  0  1  0  0  0  1  1  1  0  1  0  1  1  0  1  0  1  0  1  1  0  0  0  0  1  0  1  0  0  1  0  1  0  0  0  1  1  0  0  1  1  1  0  1  1  0  0  1  1  0  0  0  1  1  0  1  1  1  0  1  1  1  0  1  1  0  0  1  1  0  1  1  1  1  1  1  1  1  0  1  0  1  0  1  0  1  0  1  0  0  1  1  1  1  0  0  1  1  0  0  0  1  0  0  0  0  0  1  0  0  1  0  0  1  0  0  1  1  0  0  1  1  1  0  0  1  0  1  0  0  0  
0  0  1  0  1  1  0  0  1  0  0  1  0  0  1  1  1  0  1  1  1  0  1  0  0  0  0  0  1  0  0  0  0  1  1  1  1  0  1  1  0  0  1  1  0  1  1  0  1  0  0  1  0  0  1  0  0  0  1  0  0  0  0  1  1  0  1  1  1  1  1  1  1  0  0  0  0  0  0  1  1  1  1  1  0  1  1  1  1  1  1  0  1  1  0  0  1  0  0  0  1  0  1  0  1  0  0  0  1  1  1  1  0  1  1  0  1  1  0  0  0  1  0  0  0  1  0  1  1  0  0  0  1  0  1  0  1  0  0  0  0  0  1  0  1  0  0  0  1  0  1  1  0  1  0  1  0  1  1  0  0  0  0  1  1  0  1  1  0  1  1  0  0  1  1  0  0  0  0  0  1  1  0  1  0  0  1  1  1  0  1  1  0  0  1  1  0  1  0  1  
0  0  0  0  0  0  1  1  0  0  0  1  0  0  1  1  0  1  0  1  0  1  1  1  1  1  0  0  1  0  0  1  1  0  1  1  1  1  0  1  1  0  1  1  1  1  1  1  1  1  1  1  1  0  0  0  0  0  0  1  1  0  1  0  1  1  0  0  1  0  1  1  0  1  0  1  0  0  0  1  0  1  1  1  0  1  1  0  0  1  0  0  0  1  1  1  0  0  0  1  0  0  1  0  0  1  1  0  1  1  1  1  1  0  0  0  0  0  0  0  1  1  0  1  0  0  1  1  1  0  0  0  1  1  0  0  0  0  0  0  0  0  0  1  0  1  1  1  0  1  0  1  1  0  1  0  1  1  1  1  1  0  0  0  1  1  0  1  1  0  0  1  0  1  0  1  1  0  0  0  0  0  0  1  1  1  1  0  1  0  1  1  0  1  0  0  1  0  1  1  
1  1  1  0  1  0  0  1  1  1  1  0  0  1  1  0  1  0  1  1  1  0  0  1  0  1  0  1  0  0  0  1  1  1  0  0  0  1  0  0  0  1  1  0  1  0  0  0  1  1  1  0  1  0  1  1  1  0  1  0  1  1  1  0  0  0  0  1  0  0  0  0  1  1  1  1  0  0  1  1  1  1  0  0  1  0  0  0  0  0  1  1  1  0  1  0  1  0  1  1  1  0  0  0  0  1  0  0  1  1  0  0  0  0  0  0  0  0  0  1  0  1  0  0  1  1  0  1  0  1  0  1  1  1  0  1  0  1  0  1  1  1  0  0  0  1  0  1  0  0  0  1  1  0  1  1  1  1  1  0  1  0  0  1  0  1  0  1  0  1  1  1  0  0  0  1  0  1  1  0  0  1  1  1  0  0  1  0  0  0  1  1  1  0  0  0  0  0  0  1  
1  0  0  0  1  1  0  0  0  1  0  1  1  0  0  0  1  1  0  0  1  0  0  1  0  1  1  1  0  0  0  0  1  1  0  1  1  1  1  0  0  1  0  0  1  1  1  0  1  1  1  0  1  1  0  0  1  0  1  1  0  1  0  0  0  1  0  0  0  0  0  1  0  0  0  0  0  0  0  1  1  0  0  1  1  1  1  0  1  0  1  0  0  0  1  1  0  1  1  0  0  1  1  1  0  1  0  1  1  1  0  1  1  1  1  1  1  0  0  1  1  1  1  1  1  1  0  0  1  0  1  0  1  0  1  0  1  0  0  0  0  1  1  0  0  1  1  1  1  0  0  0  0  1  1  1  1  0  0  0  1  1  1  0  1  1  0  1  1  1  1  0  1  1  0  0  0  1  1  1  0  1  1  1  1  1  1  0  1  0  1  0  0  0  1  1  1  1  1  0  
0  0  0  1  1  1  1  1  1  0  0  1  1  0  0  0  1  0  0  0  0  1  1  0  1  0  1  0  0  1  0  0  1  1  0  0  1  0  1  1  1  1  1  1  0  0  1  0  0  0  0  1  0  1  0  1  0  0  1  1  0  0  0  0  1  1  0  1  0  0  1  0  1  0  0  1  1  0  0  0  1  1  0  0  0  0  1  1  1  1  1  1  0  0  0  1  1  1  0  1  1  1  0  1  0  0  1  1  0  1  0  0  1  0  0  0  1  1  0  1  0  0  0  0  1  0  1  1  0  1  1  1  0  1  1  1  1  0  1  0  0  1  1  0  1  0  0  1  1  0  0  1  1  1  0  1  1  0  1  0  1  1  0  1  1  0  1  0  0  1  0  0  1  0  0  0  1  1  0  1  1  0  0  0  1  1  1  1  0  1  0  1  1  1  0  1  1  1  1  0  
1  0  1  1  1  0  0  1  1  1  0  1  1  1  1  0  0  0  1  0  1  0  1  1  1  0  1  0  1  0  1  1  1  1  1  1  0  1  1  1  0  0  1  0  1  1  1  0  1  1  0  0  0  0  1  0  0  0  1  1  0  0  0  1  1  0  0  1  1  0  0  0  1  0  1  1  1  0  0  0  0  0  0  1  0  0  0  0  1  1  0  1  0  1  0  0  1  0  0  0  0  1  1  1  0  1  1  1  1  1  0  1  0  0  0  1  1  1  1  0  0  1  0  1  0  0  1  0  1  1  1  1  0  1  0  0  0  0  1  0  0  1  1  0  1  0  1  1  0  1  1  0  1  1  1  1  1  0  0  0  0  0  0  1  1  1  0  0  0  0  1  0  1  1  1  0  1  1  0  0  0  0  1  1  0  0  1  0  1  1  0  0  1  0  1  1  1  0  1  1  
1  1  1  0  0  0  1  0  0  1  0  1  1  1  0  1  1  1  0  0  1  1  0  1  0  1  1  1  0  1  0  1  0  0  1  0  1  0  0  0  0  1  1  1  1  1  1  1  0  1  0  0  1  0  0  0  0  0  0  1  0  0  0  0  0  0  0  0  1  0  0  0  0  1  1  1  0  1  0  1  1  1  1  1  0  1  1  0  1  0  1  0  1  1  0  0  1  1  0  1  0  1  1  0  1  0  1  1  0  1  1  0  1  1  1  0  0  0  1  1  0  0  0  0  0  1  0  0  1  1  1  0  0  1  1  0  0  1  1  1  0  0  0  0  1  1  0  1  1  0  0  1  0  1  0  1  0  0  1  1  0  0  1  0  0  1  1  0  1  1  0  1  0  0  0  0  1  1  0  1  0  1  1  1  0  1  1  1  1  0  0  0  0  1  0  0  0  0  1  1  
8  2  8  6  1  2  9  9  8  1  9  5  10  6  3  6  2  5  3  6  8  10  4  10  6  6  6  7  7  10  2  9  4  4  4  4  9  6  1  4  7  9  6  4  6  4  10  3  10  6  5  3  9  8  8  1  10  4  2  1  8  4  5  1  6  10  4  2  4  9  2  5  10  7  6  2  10  5  6  8  5  1  1  5  7  9  2  1  9  8  7  8  3  10  2  2  8  8  3  3  5  9  10  5  1  9  7  4  6  3  4  8  2  8  2  5  10  4  5  8  9  9  9  4  8  2  5  8  10  7  3  6  2  7  4  10  8  4  10  10  5  6  7  3  5  8  3  6  9  1  8  5  8  6  7  3  9  5  10  10  8  1  6  8  10  3  5  6  5  1  5  7  1  2  8  9  1  7  6  8  4  9  9  2  1  6  1  2  10  2  10  7  7  1  8  2  4  1  8  7  